c User generated cnf file
p cnf 10 42
1 -6 3 0 
4 -6 3 0 
6 -10 1 0 
7 5 -7 0 
9 5 -10 0 
6 -6 10 0 
2 2 -9 0 
4 -8 6 0 
-8 2 2 0 
-8 2 8 0 
10 -2 5 0 
4 10 -4 0 
4 -6 6 0 
7 7 -1 0 
-6 9 6 0 
7 7 -4 0 
1 -5 8 0 
-5 2 4 0 
10 2 -4 0 
10 -6 7 0 
10 6 -1 0 
-10 8 7 0 
6 3 -4 0 
2 -10 1 0 
6 1 -2 0 
10 9 -7 0 
6 -9 2 0 
3 -6 8 0 
7 4 -1 0 
8 7 -1 0 
2 -1 5 0 
4 -8 8 0 
3 -6 4 0 
8 -5 3 0 
-7 4 2 0 
1 1 -1 0 
2 3 -5 0 
5 -10 10 0 
10 6 -9 0 
7 10 -4 0 
-5 5 10 0 
-6 1 9 0 
